c uprop, v00.0, 
c reading from data/prog602.c.cnf
c done reading: 0.002544
p cnf 108 466
-58 -76 0
-61 -76 0
58 61 76 0
58 61 -82 0
-58 -61 -82 0
-58 61 82 0
58 -61 82 0
-65 76 0
-65 -66 0
65 66 -76 0
66 -72 -76 0
-66 -72 76 0
66 72 76 0
-66 72 -76 0
65 -75 0
-75 -77 0
-65 75 77 0
-65 77 -79 0
65 -77 -79 0
65 77 79 0
-65 -77 79 0
75 -80 0
-80 -84 0
-75 80 84 0
-60 -75 84 0
-60 75 -84 0
60 75 84 0
60 -75 -84 0
-57 80 0
-57 -63 0
57 63 -80 0
-56 63 -80 0
-56 -63 80 0
56 63 80 0
56 -63 -80 0
-55 57 0
-55 -69 0
55 -57 69 0
-54 -57 69 0
-54 57 -69 0
54 57 69 0
54 -57 -69 0
-53 55 0
-53 -73 0
53 -55 73 0
-52 -55 73 0
-52 55 -73 0
52 55 73 0
52 -55 -73 0
-51 61 0
-51 58 0
51 -58 -61 0
-50 -58 -61 0
-50 58 61 0
50 58 -61 0
50 -58 61 0
49 -61 -66 0
49 -51 -66 0
49 -51 -61 0
-49 61 66 0
-49 51 66 0
-49 51 61 0
-48 -49 66 0
-48 -49 61 0
-48 -49 51 0
48 49 -66 0
48 49 -61 0
48 49 -51 0
48 -51 -61 -66 0
-48 51 61 66 0
47 -66 -77 0
47 -49 -77 0
47 -49 -66 0
-47 66 77 0
-47 49 77 0
-47 49 66 0
-46 -47 77 0
-46 -47 66 0
-46 -47 49 0
46 47 -77 0
46 47 -66 0
46 47 -49 0
46 -49 -66 -77 0
-46 49 66 77 0
45 -77 -84 0
45 -47 -84 0
45 -47 -77 0
-45 77 84 0
-45 47 84 0
-45 47 77 0
-45 84 -86 0
-45 77 -86 0
-45 47 -86 0
45 -84 86 0
45 -77 86 0
45 -47 86 0
-47 -77 -84 86 0
47 77 84 -86 0
-63 -84 87 0
-45 -63 87 0
-45 -84 87 0
63 84 -87 0
45 63 -87 0
45 84 -87 0
63 -87 -88 0
84 -87 -88 0
45 -87 -88 0
-63 87 88 0
-84 87 88 0
-45 87 88 0
-45 -63 -84 88 0
45 63 84 -88 0
-63 -69 89 0
-69 -87 89 0
-63 -87 89 0
63 69 -89 0
69 87 -89 0
63 87 -89 0
69 -89 -90 0
63 -89 -90 0
87 -89 -90 0
-69 89 90 0
-63 89 90 0
-87 89 90 0
-63 -69 -87 90 0
63 69 87 -90 0
-69 -73 91 0
-73 -89 91 0
-69 -89 91 0
69 73 -91 0
73 89 -91 0
69 89 -91 0
-59 73 -91 0
-59 69 -91 0
-59 89 -91 0
59 -73 91 0
59 -69 91 0
59 -89 91 0
59 -69 -73 -89 0
-59 69 73 89 0
-62 73 0
-62 91 0
62 -73 -91 0
-67 -73 -91 0
-67 73 91 0
67 -73 91 0
67 73 -91 0
-58 -78 0
-50 -78 0
50 58 78 0
50 58 -85 0
-50 -58 -85 0
50 -58 85 0
-50 58 85 0
-64 78 0
-48 -64 0
48 64 -78 0
48 -70 -78 0
-48 -70 78 0
48 70 78 0
-48 70 -78 0
64 -74 0
-46 -74 0
46 -64 74 0
46 -64 -92 0
-46 64 -92 0
46 64 92 0
-46 -64 92 0
74 -93 0
-86 -93 0
-74 86 93 0
-74 86 -94 0
74 -86 -94 0
74 86 94 0
-74 -86 94 0
93 -95 0
-88 -95 0
88 -93 95 0
88 -93 -97 0
-88 93 -97 0
88 93 97 0
-88 -93 97 0
95 -100 0
-90 -100 0
90 -95 100 0
90 -95 -101 0
-90 95 -101 0
90 95 101 0
-90 -95 101 0
100 -102 0
-59 -102 0
59 -100 102 0
59 -100 -103 0
-59 100 -103 0
59 100 103 0
-59 -100 103 0
102 -104 0
-67 -104 0
67 -102 104 0
67 -102 -105 0
-67 102 -105 0
67 102 105 0
-67 -102 105 0
104 -106 0
-62 -106 0
62 -104 106 0
62 -104 -107 0
-62 104 -107 0
62 104 107 0
-62 -104 107 0
-96 -108 0
96 108 0
-44 -99 0
44 99 0
-42 -43 0
42 43 0
-39 -41 0
39 41 0
-37 -38 0
37 38 0
-36 96 0
36 -96 0
35 -96 -99 0
35 -99 0
35 -96 0
-35 96 99 0
-34 -35 99 0
-34 -35 96 0
34 35 -99 0
34 35 -96 0
34 35 0
34 -96 -99 0
33 -43 -99 0
33 -35 -43 0
33 -35 -99 0
-33 43 99 0
-33 35 43 0
-33 35 99 0
-32 -33 43 0
-32 -33 99 0
-32 -33 35 0
32 33 -43 0
32 33 -99 0
32 33 -35 0
32 -35 -43 -99 0
-32 35 43 99 0
31 -41 -43 0
31 -33 -41 0
31 -33 -43 0
-31 41 43 0
-31 33 41 0
-31 33 43 0
-30 -31 41 0
-30 -31 43 0
-30 -31 33 0
30 31 -41 0
30 31 -43 0
30 31 -33 0
30 -33 -41 -43 0
-30 33 41 43 0
29 -38 -41 0
29 -31 -38 0
29 -31 -41 0
-29 38 41 0
-29 31 38 0
-29 31 41 0
-28 -29 38 0
-28 -29 41 0
-28 -29 31 0
28 29 -38 0
28 29 -41 0
28 29 -31 0
28 -31 -38 -41 0
-28 31 38 41 0
-27 38 0
-27 29 0
27 -29 -38 0
-26 -29 -38 0
-26 29 38 0
26 29 -38 0
26 -29 38 0
25 -36 0
-25 36 0
-24 -25 36 0
-24 -25 0
24 25 -36 0
24 25 0
23 -34 0
23 -25 -34 0
23 -25 0
-23 25 34 0
-22 -23 34 0
-22 -23 25 0
22 23 -34 0
22 23 0
22 23 -25 0
22 -25 -34 0
21 -32 -96 0
21 -23 -32 0
21 -23 -96 0
-21 32 96 0
-21 23 32 0
-21 23 96 0
-20 -21 32 0
-20 -21 96 0
-20 -21 23 0
20 21 -32 0
20 21 -96 0
20 21 -23 0
20 -23 -32 -96 0
-20 23 32 96 0
19 -30 -99 0
19 -21 -30 0
19 -21 -99 0
-19 30 99 0
-19 21 30 0
-19 21 99 0
-18 -19 30 0
-18 -19 99 0
-18 -19 21 0
18 19 -30 0
18 19 -99 0
18 19 -21 0
18 -21 -30 -99 0
-18 21 30 99 0
17 -28 -43 0
17 -19 -28 0
17 -19 -43 0
-17 28 43 0
-17 19 28 0
-17 19 43 0
-16 -17 28 0
-16 -17 43 0
-16 -17 19 0
16 17 -28 0
16 17 -43 0
16 17 -19 0
16 -19 -28 -43 0
-16 19 28 43 0
15 -26 -41 0
15 -17 -26 0
15 -17 -41 0
-15 26 41 0
-15 17 26 0
-15 17 41 0
-14 -15 26 0
-14 -15 41 0
-14 -15 17 0
14 15 -26 0
14 15 -41 0
14 15 -17 0
14 -17 -26 -41 0
-14 17 26 41 0
13 -27 -38 0
13 -15 -27 0
13 -15 -38 0
-13 27 38 0
-13 15 27 0
-13 15 38 0
-12 -13 27 0
-12 -13 38 0
-12 -13 15 0
12 13 -27 0
12 13 -38 0
12 13 -15 0
12 -15 -27 -38 0
-12 15 27 38 0
-24 -83 0
24 83 0
-22 -68 0
22 68 0
-11 -20 0
11 20 0
-10 -18 0
10 18 0
-16 -98 0
16 98 0
-14 -40 0
14 40 0
-9 -12 0
9 12 0
-8 -13 0
8 13 0
-7 58 0
-7 24 0
7 -24 -58 0
24 -58 0
-24 58 0
6 -22 -50 0
6 -7 -50 0
6 -7 -22 0
-6 22 50 0
-6 7 50 0
-6 7 22 0
-6 50 0
-6 22 0
-6 7 0
7 22 50 0
5 -20 -48 0
5 -6 -48 0
5 -6 -20 0
-5 20 48 0
-5 6 48 0
-5 6 20 0
5 -48 0
5 -20 0
5 -6 0
-6 -20 -48 0
4 -18 -46 0
4 -5 -46 0
4 -5 -18 0
-4 18 46 0
-4 5 46 0
-4 5 18 0
4 -46 0
4 -18 0
4 -5 0
-5 -18 -46 0
3 -16 -86 0
3 -4 -86 0
3 -4 -16 0
-3 16 86 0
-3 4 86 0
-3 4 16 0
-3 86 0
-3 16 0
-3 4 0
4 16 86 0
2 -14 -88 0
2 -3 -88 0
2 -3 -14 0
-2 14 88 0
-2 3 88 0
-2 3 14 0
2 -88 0
2 -14 0
2 -3 0
-3 -14 -88 0
1 -12 -90 0
1 -2 -90 0
1 -2 -12 0
-1 12 90 0
-1 2 90 0
-1 2 12 0
1 -90 0
1 -12 0
1 -2 0
-2 -12 -90 0
-13 -59 81 0
-1 -59 81 0
-1 -13 81 0
13 59 -81 0
1 59 -81 0
1 13 -81 0
-59 81 0
-13 81 0
-1 81 0
-1 -13 -59 0
67 -71 0
-71 81 0
-67 71 -81 0
-67 81 0
67 -81 0
-62 -71 0
-62 71 0
62 -71 0
